6643908460343440211503,2,1,2,09,9,1,2,07,15,1,2,012,4,1,2,03,12,1,2,01,6,1,2,01,4,1,2,04,4,1,2,05,4,1,2,04,5,1,2,015,5,1,2,010,1,1,2,01,13,1,2,015,5,1,2,03,14,1,2,03,5,1,2,05,10,1,2,03,1,1,2,02,1,1,2,011,14,1,2,015,10,1,2,013,3,1,2,014,12,1,2,09,13,1,2,014,15,1,2,02,15,1,2,015,15,1,2,010,9,1,2,013,3,1,2,015,7,1,2,06,5,1,2,012,13,1,2,09,8,1,2,014,8,1,2,05,8,1,2,03,15,1,2,07,13,1,2,06,10,1,2,011,11,1,2,013,12,1,2,06,12,1,2,07,2,1,2,015,6,1,2,015,5,1,2,04,7,1,2,014,12,1,2,014,7,1,2,015,13,1,2,015,9,1,2,08,8,1,2,0